routing.dat

param N := 5 ;
param M := 2 ;
param p := 1 ;
param q := 3 ;
param B := 3 ;
param Q := 1;

param : E : d :=
1 2 2
1 4 2
1 5 1
2 1 2
2 3 2
2 5 1
3 2 2
3 4 2
3 5 1
4 1 2
4 3 2
4 5 1
5 1 1
5 2 1
5 3 1
5 4 1
;


param : c :=
1 2 2
1 4 1
1 5 4
2 1 2
2 3 3
2 5 3
3 2 3
3 4 2
3 5 2
4 1 1
4 3 2
4 5 2
5 1 4
5 2 3
5 3 2
5 4 2
;


param : R :=
1 2 0.98
1 4 0.99
1 5 0.95
2 1 0.98
2 3 0.8
2 5 0.99
3 2 0.8
3 4 0.99
3 5 0.95
4 1 0.99
4 3 0.99
4 5 0.95
5 1 0.95
5 2 0.99
5 3 0.95
5 4 0.95
;
end;
