routing.out
Problem:    routing
Rows:       175
Columns:    99 (99 integer, 48 binary)
Non-zeros:  516
Status:     INTEGER OPTIMAL
Objective:  FLOW_COST = 4 (MINimum)

   No.   Row name        Activity     Lower bound   Upper bound
------ ------------    ------------- ------------- -------------
     1 FLOW_COST                   4                             
     2 INTERNAL[1,1]
                                   0            -0             = 
     3 INTERNAL[1,2]
                                   0            -0             = 
     4 INTERNAL[1,3]
                                   0            -0             = 
     5 INTERNAL[2,1]
                                   0            -0             = 
     6 INTERNAL[2,2]
                                   0            -0             = 
     7 INTERNAL[2,3]
                                   0            -0             = 
     8 INTERNAL[3,1]
                                   0            -0             = 
     9 INTERNAL[3,2]
                                   0            -0             = 
    10 INTERNAL[3,3]
                                   0            -0             = 
    11 SOURCE[1,5]                 1             1             = 
    12 SOURCE[2,5]                 1             1             = 
    13 SOURCE[3,5]                 1             1             = 
    14 CAPACITY[1,2]
                                   0             0            10 
    15 CAPACITY[1,4]
                                   0             0            10 
    16 CAPACITY[1,5]
                                   0             0            10 
    17 CAPACITY[2,1]
                                   0             0            10 
    18 CAPACITY[2,3]
                                   0             0            10 
    19 CAPACITY[2,5]
                                   0             0            10 
    20 CAPACITY[3,2]
                                   0             0            10 
    21 CAPACITY[3,4]
                                   0             0            10 
    22 CAPACITY[3,5]
                                   0             0            10 
    23 CAPACITY[4,1]
                                   0             0            10 
    24 CAPACITY[4,3]
                                   0             0            10 
    25 CAPACITY[4,5]
                                   0             0            10 
    26 CAPACITY[5,1]
                                   0             0            10 
    27 CAPACITY[5,2]
                                   0             0            10 
    28 CAPACITY[5,3]
                                   0             0            10 
    29 CAPACITY[5,4]
                                   4             0            10 
    30 REQCAPACITY                 4             3               
    31 REQEXPECTED           3.91464             3               
    32 st1[1,1,2]                  0           -10               
    33 st1[1,1,4]                -10           -10               
    34 st1[1,1,5]                  0           -10               
    35 st1[1,2,1]                  0           -10               
    36 st1[1,2,3]                  0           -10               
    37 st1[1,2,5]                  0           -10               
    38 st1[1,3,2]                  0           -10               
    39 st1[1,3,4]                  0           -10               
    40 st1[1,3,5]                  0           -10               
    41 st1[1,4,1]                  0           -10               
    42 st1[1,4,3]                  0           -10               
    43 st1[1,4,5]                  0           -10               
    44 st1[1,5,1]                -10           -10               
    45 st1[1,5,2]                  0           -10               
    46 st1[1,5,3]                  0           -10               
    47 st1[1,5,4]                  0           -10               
    48 st1[2,1,2]                  0           -10               
    49 st1[2,1,4]                -10           -10               
    50 st1[2,1,5]                  0           -10               
    51 st1[2,2,1]                  0           -10               
    52 st1[2,2,3]                  0           -10               
    53 st1[2,2,5]                  0           -10               
    54 st1[2,3,2]                  0           -10               
    55 st1[2,3,4]                  0           -10               
    56 st1[2,3,5]                  0           -10               
    57 st1[2,4,1]                  0           -10               
    58 st1[2,4,3]                  0           -10               
    59 st1[2,4,5]                  0           -10               
    60 st1[2,5,1]                -10           -10               
    61 st1[2,5,2]                  0           -10               
    62 st1[2,5,3]                  0           -10               
    63 st1[2,5,4]                  0           -10               
    64 st1[3,1,2]                 -4           -10               
    65 st1[3,1,4]                 -4           -10               
    66 st1[3,1,5]                 -4           -10               
    67 st1[3,2,1]                 -4           -10               
    68 st1[3,2,3]                 -4           -10               
    69 st1[3,2,5]                 -4           -10               
    70 st1[3,3,2]                 -4           -10               
    71 st1[3,3,4]                 -4           -10               
    72 st1[3,3,5]                 -4           -10               
    73 st1[3,4,1]                 -4           -10               
    74 st1[3,4,3]                 -4           -10               
    75 st1[3,4,5]                 -4           -10               
    76 st1[3,5,1]                 -4           -10               
    77 st1[3,5,2]                 -4           -10               
    78 st1[3,5,3]                 -4           -10               
    79 st1[3,5,4]                -10           -10               
    80 st2[1,1,2]                  0                          -0 
    81 st2[1,1,4]                -10                          -0 
    82 st2[1,1,5]                  0                          -0 
    83 st2[1,2,1]                  0                          -0 
    84 st2[1,2,3]                  0                          -0 
    85 st2[1,2,5]                  0                          -0 
    86 st2[1,3,2]                  0                          -0 
    87 st2[1,3,4]                  0                          -0 
    88 st2[1,3,5]                  0                          -0 
    89 st2[1,4,1]                  0                          -0 
    90 st2[1,4,3]                  0                          -0 
    91 st2[1,4,5]                  0                          -0 
    92 st2[1,5,1]                -10                          -0 
    93 st2[1,5,2]                  0                          -0 
    94 st2[1,5,3]                  0                          -0 
    95 st2[1,5,4]                  0                          -0 
    96 st2[2,1,2]                  0                          -0 
    97 st2[2,1,4]                -10                          -0 
    98 st2[2,1,5]                  0                          -0 
    99 st2[2,2,1]                  0                          -0 
   100 st2[2,2,3]                  0                          -0 
   101 st2[2,2,5]                  0                          -0 
   102 st2[2,3,2]                  0                          -0 
   103 st2[2,3,4]                  0                          -0 
   104 st2[2,3,5]                  0                          -0 
   105 st2[2,4,1]                  0                          -0 
   106 st2[2,4,3]                  0                          -0 
   107 st2[2,4,5]                  0                          -0 
   108 st2[2,5,1]                -10                          -0 
   109 st2[2,5,2]                  0                          -0 
   110 st2[2,5,3]                  0                          -0 
   111 st2[2,5,4]                  0                          -0 
   112 st2[3,1,2]                  0                          -0 
   113 st2[3,1,4]                  0                          -0 
   114 st2[3,1,5]                  0                          -0 
   115 st2[3,2,1]                  0                          -0 
   116 st2[3,2,3]                  0                          -0 
   117 st2[3,2,5]                  0                          -0 
   118 st2[3,3,2]                  0                          -0 
   119 st2[3,3,4]                  0                          -0 
   120 st2[3,3,5]                  0                          -0 
   121 st2[3,4,1]                  0                          -0 
   122 st2[3,4,3]                  0                          -0 
   123 st2[3,4,5]                  0                          -0 
   124 st2[3,5,1]                  0                          -0 
   125 st2[3,5,2]                  0                          -0 
   126 st2[3,5,3]                  0                          -0 
   127 st2[3,5,4]                 -6                          -0 
   128 st3[1,1,2]                  0            -0               
   129 st3[1,1,4]                  0            -0               
   130 st3[1,1,5]                  0            -0               
   131 st3[1,2,1]                  0            -0               
   132 st3[1,2,3]                  0            -0               
   133 st3[1,2,5]                  0            -0               
   134 st3[1,3,2]                  0            -0               
   135 st3[1,3,4]                  0            -0               
   136 st3[1,3,5]                  0            -0               
   137 st3[1,4,1]                  0            -0               
   138 st3[1,4,3]                  0            -0               
   139 st3[1,4,5]                  0            -0               
   140 st3[1,5,1]                  0            -0               
   141 st3[1,5,2]                  0            -0               
   142 st3[1,5,3]                  0            -0               
   143 st3[1,5,4]                  0            -0               
   144 st3[2,1,2]                  0            -0               
   145 st3[2,1,4]                  0            -0               
   146 st3[2,1,5]                  0            -0               
   147 st3[2,2,1]                  0            -0               
   148 st3[2,2,3]                  0            -0               
   149 st3[2,2,5]                  0            -0               
   150 st3[2,3,2]                  0            -0               
   151 st3[2,3,4]                  0            -0               
   152 st3[2,3,5]                  0            -0               
   153 st3[2,4,1]                  0            -0               
   154 st3[2,4,3]                  0            -0               
   155 st3[2,4,5]                  0            -0               
   156 st3[2,5,1]                  0            -0               
   157 st3[2,5,2]                  0            -0               
   158 st3[2,5,3]                  0            -0               
   159 st3[2,5,4]                  0            -0               
   160 st3[3,1,2]                  0            -0               
   161 st3[3,1,4]                  0            -0               
   162 st3[3,1,5]                  0            -0               
   163 st3[3,2,1]                  0            -0               
   164 st3[3,2,3]                  0            -0               
   165 st3[3,2,5]                  0            -0               
   166 st3[3,3,2]                  0            -0               
   167 st3[3,3,4]                  0            -0               
   168 st3[3,3,5]                  0            -0               
   169 st3[3,4,1]                  0            -0               
   170 st3[3,4,3]                  0            -0               
   171 st3[3,4,5]                  0            -0               
   172 st3[3,5,1]                  0            -0               
   173 st3[3,5,2]                  0            -0               
   174 st3[3,5,3]                  0            -0               
   175 st3[3,5,4]                  4            -0               

   No. Column name       Activity     Lower bound   Upper bound
------ ------------    ------------- ------------- -------------
     1 x[1,2,1]     *              0             0             1 
     2 x[1,4,1]     *              0             0             1 
     3 x[1,5,1]     *              1             0             1 
     4 x[1,1,2]     *              0             0             1 
     5 x[1,1,4]     *              1             0             1 
     6 x[1,1,5]     *              0             0             1 
     7 x[1,3,2]     *              0             0             1 
     8 x[1,5,2]     *              0             0             1 
     9 x[1,2,3]     *              0             0             1 
    10 x[1,2,5]     *              0             0             1 
    11 x[1,4,3]     *              0             0             1 
    12 x[1,5,3]     *              0             0             1 
    13 x[1,3,4]     *              0             0             1 
    14 x[1,3,5]     *              0             0             1 
    15 x[2,2,1]     *              0             0             1 
    16 x[2,4,1]     *              0             0             1 
    17 x[2,5,1]     *              1             0             1 
    18 x[2,1,2]     *              0             0             1 
    19 x[2,1,4]     *              1             0             1 
    20 x[2,1,5]     *              0             0             1 
    21 x[2,3,2]     *              0             0             1 
    22 x[2,5,2]     *              0             0             1 
    23 x[2,2,3]     *              0             0             1 
    24 x[2,2,5]     *              0             0             1 
    25 x[2,4,3]     *              0             0             1 
    26 x[2,5,3]     *              0             0             1 
    27 x[2,3,4]     *              0             0             1 
    28 x[2,3,5]     *              0             0             1 
    29 x[3,2,1]     *              0             0             1 
    30 x[3,4,1]     *              0             0             1 
    31 x[3,5,1]     *              0             0             1 
    32 x[3,1,2]     *              0             0             1 
    33 x[3,1,4]     *              0             0             1 
    34 x[3,1,5]     *              0             0             1 
    35 x[3,3,2]     *              0             0             1 
    36 x[3,5,2]     *              0             0             1 
    37 x[3,2,3]     *              0             0             1 
    38 x[3,2,5]     *              0             0             1 
    39 x[3,4,3]     *              0             0             1 
    40 x[3,5,3]     *              0             0             1 
    41 x[3,3,4]     *              0             0             1 
    42 x[3,3,5]     *              0             0             1 
    43 x[1,4,5]     *              0             0             1 
    44 x[1,5,4]     *              0             0             1 
    45 x[2,4,5]     *              0             0             1 
    46 x[2,5,4]     *              0             0             1 
    47 x[3,4,5]     *              0             0             1 
    48 x[3,5,4]     *              1             0             1 
    49 y[1,1,2]     *              0             0               
    50 y[1,1,4]     *              0             0               
    51 y[1,1,5]     *              0             0               
    52 y[1,2,1]     *              0             0               
    53 y[1,2,3]     *              0             0               
    54 y[1,2,5]     *              0             0               
    55 y[1,3,2]     *              0             0               
    56 y[1,3,4]     *              0             0               
    57 y[1,3,5]     *              0             0               
    58 y[1,4,1]     *              0             0               
    59 y[1,4,3]     *              0             0               
    60 y[1,4,5]     *              0             0               
    61 y[1,5,1]     *              0             0               
    62 y[1,5,2]     *              0             0               
    63 y[1,5,3]     *              0             0               
    64 y[1,5,4]     *              0             0               
    65 y[2,1,2]     *              0             0               
    66 y[2,1,4]     *              0             0               
    67 y[2,1,5]     *              0             0               
    68 y[2,2,1]     *              0             0               
    69 y[2,2,3]     *              0             0               
    70 y[2,2,5]     *              0             0               
    71 y[2,3,2]     *              0             0               
    72 y[2,3,4]     *              0             0               
    73 y[2,3,5]     *              0             0               
    74 y[2,4,1]     *              0             0               
    75 y[2,4,3]     *              0             0               
    76 y[2,4,5]     *              0             0               
    77 y[2,5,1]     *              0             0               
    78 y[2,5,2]     *              0             0               
    79 y[2,5,3]     *              0             0               
    80 y[2,5,4]     *              0             0               
    81 y[3,1,2]     *              0             0               
    82 y[3,1,4]     *              0             0               
    83 y[3,1,5]     *              0             0               
    84 y[3,2,1]     *              0             0               
    85 y[3,2,3]     *              0             0               
    86 y[3,2,5]     *              0             0               
    87 y[3,3,2]     *              0             0               
    88 y[3,3,4]     *              0             0               
    89 y[3,3,5]     *              0             0               
    90 y[3,4,1]     *              0             0               
    91 y[3,4,3]     *              0             0               
    92 y[3,4,5]     *              0             0               
    93 y[3,5,1]     *              0             0               
    94 y[3,5,2]     *              0             0               
    95 y[3,5,3]     *              0             0               
    96 y[3,5,4]     *              4             0               
    97 b[1]         *              0             0               
    98 b[2]         *              0             0               
    99 b[3]         *              4             0               

Integer feasibility conditions:

KKT.PE: max.abs.err = 0.00e+00 on row 0
        max.rel.err = 0.00e+00 on row 0
        High quality

KKT.PB: max.abs.err = 0.00e+00 on row 0
        max.rel.err = 0.00e+00 on row 0
        High quality

End of output
